self-compositions/words_1/words_251_SAT.qaiger.qdimacs
p cnf 90 223
a 1 2 3 4 5 6 7 8 0
e 9 10 11 12 13 14 15 16 17 18 19 20 21 22 23 24 25 26 27 28 29 30 31 32 33 34 35 36 37 38 39 40 41 42 43 44 45 46 47 48 49 50 51 52 53 54 55 56 57 58 59 60 61 62 63 64 65 66 67 68 69 70 71 72 73 74 75 76 77 78 79 80 81 82 83 84 85 86 87 88 89 90 0
15 7 17 0
-15 -17 0
-7 -17 0
-15 -7 18 0
15 -18 0
7 -18 0
-14 -6 19 0
14 -19 0
6 -19 0
14 6 20 0
-14 -20 0
-6 -20 0
13 5 21 0
-13 -21 0
-5 -21 0
12 4 22 0
-12 -22 0
-4 -22 0
-12 -4 23 0
12 -23 0
4 -23 0
-11 -3 24 0
11 -24 0
3 -24 0
11 3 25 0
-11 -25 0
-3 -25 0
-10 -2 26 0
10 -26 0
2 -26 0
10 2 27 0
-10 -27 0
-2 -27 0
27 -1 28 0
-27 -28 0
1 -28 0
-28 -9 29 0
28 -29 0
9 -29 0
29 26 30 0
-29 -30 0
-26 -30 0
30 25 31 0
-30 -31 0
-25 -31 0
31 24 32 0
-31 -32 0
-24 -32 0
-32 23 33 0
32 -33 0
-23 -33 0
33 22 34 0
-33 -34 0
-22 -34 0
-13 -5 35 0
13 -35 0
5 -35 0
35 34 36 0
-35 -36 0
-34 -36 0
36 21 37 0
-36 -37 0
-21 -37 0
-37 20 38 0
37 -38 0
-20 -38 0
38 19 39 0
-38 -39 0
-19 -39 0
-39 18 40 0
39 -40 0
-18 -40 0
40 17 41 0
-40 -41 0
-17 -41 0
12 11 42 0
-12 -42 0
-11 -42 0
10 9 43 0
-10 -43 0
-9 -43 0
-43 -42 44 0
43 -44 0
42 -44 0
-44 13 45 0
44 -45 0
-13 -45 0
-45 14 46 0
45 -46 0
-14 -46 0
-46 15 47 0
46 -47 0
-15 -47 0
47 -8 48 0
-47 -48 0
8 -48 0
-47 8 49 0
47 -49 0
-8 -49 0
49 48 50 0
-49 -50 0
-48 -50 0
50 -41 51 0
-50 -51 0
41 -51 0
-50 41 52 0
50 -52 0
-41 -52 0
46 -7 53 0
-46 -53 0
7 -53 0
-46 7 54 0
46 -54 0
-7 -54 0
54 53 55 0
-54 -55 0
-53 -55 0
-55 -39 56 0
55 -56 0
39 -56 0
55 39 57 0
-55 -57 0
-39 -57 0
57 56 58 0
-57 -58 0
-56 -58 0
45 6 59 0
-45 -59 0
-6 -59 0
-45 -6 60 0
45 -60 0
6 -60 0
60 59 61 0
-60 -61 0
-59 -61 0
-61 -37 62 0
61 -62 0
37 -62 0
61 37 63 0
-61 -63 0
-37 -63 0
44 -5 64 0
-44 -64 0
5 -64 0
-44 5 65 0
44 -65 0
-5 -65 0
65 64 66 0
-65 -66 0
-64 -66 0
66 -34 67 0
-66 -67 0
34 -67 0
67 63 68 0
-67 -68 0
-63 -68 0
-68 62 69 0
68 -69 0
-62 -69 0
-10 -3 70 0
10 -70 0
3 -70 0
10 3 71 0
-10 -71 0
-3 -71 0
71 -2 72 0
-71 -72 0
2 -72 0
-72 70 73 0
72 -73 0
-70 -73 0
73 -9 74 0
-73 -74 0
9 -74 0
-66 34 75 0
66 -75 0
-34 -75 0
11 4 76 0
-11 -76 0
-4 -76 0
-11 -4 77 0
11 -77 0
4 -77 0
77 76 78 0
-77 -78 0
-76 -78 0
-78 70 79 0
78 -79 0
-70 -79 0
79 2 80 0
-79 -80 0
-2 -80 0
80 9 81 0
-80 -81 0
-9 -81 0
81 1 82 0
-81 -82 0
-1 -82 0
-82 75 83 0
82 -83 0
-75 -83 0
-83 74 84 0
83 -84 0
-74 -84 0
78 71 85 0
-78 -85 0
-71 -85 0
85 -84 86 0
-85 -86 0
84 -86 0
-86 -69 87 0
86 -87 0
69 -87 0
-87 -58 88 0
87 -88 0
58 -88 0
-88 52 89 0
88 -89 0
-52 -89 0
-89 51 90 0
89 -90 0
-51 -90 0
-90 0
