words_easy_train/words_251_SAT.qaiger
aag 67 16 0 1 51
6
20
26
24
4
22
30
32
10
8
18
14
12
16
28
2
134
34 20 18
36 34 22
38 36 24
40 38 26
42 40 28
44 42 30
46 43 31
48 47 45
50 48 14
52 49 15
54 53 51
56 39 27
58 57 41
60 58 11
62 59 10
64 63 61
66 35 23
68 67 37
70 69 7
72 68 6
74 73 71
76 20 5
78 21 4
80 79 77
82 81 19
84 18 2
86 80 3
88 87 85
90 88 83
92 90 75
94 37 25
96 95 39
98 96 9
100 97 8
102 101 99
104 102 92
106 104 64
108 32 17
110 33 16
112 111 109
114 112 44
116 113 45
118 117 115
120 118 106
122 120 55
124 41 29
126 125 43
128 126 13
130 127 12
132 131 129
134 132 122
i0 2 y2[2]
i1 1 x1[1]
i2 1 x1[4]
i3 1 x1[3]
i4 2 y2[1]
i5 1 x1[2]
i6 1 x1[6]
i7 1 x1[7]
i8 2 y2[4]
i9 2 y2[3]
i10 1 x1[0]
i11 2 y2[6]
i12 2 y2[5]
i13 2 y2[7]
i14 1 x1[5]
i15 2 y2[0]
o0 bool[0]
c
simplified
  ==
    2 y2
    subtract
      1 x1
      unary minus
        1
